2
150 2
81
20 1 18
21 1 18
22 1 16
23 1 10
24 1 14
25 1 14
26 1 13
27 1 16
28 1 13
29 1 7
30 1 15
31 1 14
32 1 14
33 1 6
34 1 7
35 1 17
36 1 18
37 1 13
38 1 12
39 1 13
40 1 12
41 1 12
42 1 5
43 1 12
44 1 11
45 1 15
46 1 6
47 1 10
48 1 12
49 1 11
50 1 13
51 1 13
52 1 15
53 1 10
54 1 12
55 1 14
56 1 11
57 1 10
58 1 11
59 1 11
60 1 11
61 1 14
62 1 15
63 1 15
64 1 21
65 1 9
66 1 14
67 1 10
68 1 13
69 1 11
70 1 16
71 1 12
72 1 12
73 1 17
74 1 12
75 1 17
76 1 11
77 1 10
78 1 16
79 1 13
80 1 12
81 1 10
82 1 10
83 1 6
84 1 13
85 1 14
86 1 6
87 1 10
88 1 7
89 1 13
90 1 11
91 1 16
92 1 12
93 1 14
94 1 15
95 1 10
96 1 17
97 1 8
98 1 7
99 1 10
100 1 16
